letting n be 15
letting SGS be function((0, 0) --> 0, 
(0, 1) --> 1, 
(0, 2) --> 2, 
(0, 3) --> 3, 
(0, 4) --> 4, 
(0, 5) --> 5, 
(0, 6) --> 6, 
(0, 7) --> 7, 
(0, 8) --> 8, 
(0, 9) --> 9, 
(0, 10) --> 10, 
(0, 11) --> 11, 
(0, 12) --> 12, 
(0, 13) --> 13, 
(0, 14) --> 14, 
(1, 0) --> 0, 
(1, 1) --> 1, 
(1, 2) --> 2, 
(1, 3) --> 3, 
(1, 4) --> 4, 
(1, 5) --> 5, 
(1, 6) --> 6, 
(1, 7) --> 7, 
(1, 8) --> 8, 
(1, 9) --> 9, 
(1, 10) --> 10, 
(1, 11) --> 11, 
(1, 12) --> 12, 
(1, 13) --> 14, 
(1, 14) --> 13, 
(2, 0) --> 0, 
(2, 1) --> 1, 
(2, 2) --> 2, 
(2, 3) --> 3, 
(2, 4) --> 4, 
(2, 5) --> 5, 
(2, 6) --> 6, 
(2, 7) --> 7, 
(2, 8) --> 8, 
(2, 9) --> 9, 
(2, 10) --> 10, 
(2, 11) --> 11, 
(2, 12) --> 13, 
(2, 13) --> 12, 
(2, 14) --> 13, 
(3, 0) --> 0, 
(3, 1) --> 1, 
(3, 2) --> 2, 
(3, 3) --> 3, 
(3, 4) --> 4, 
(3, 5) --> 5, 
(3, 6) --> 6, 
(3, 7) --> 7, 
(3, 8) --> 8, 
(3, 9) --> 9, 
(3, 10) --> 10, 
(3, 11) --> 11, 
(3, 12) --> 14, 
(3, 13) --> 12, 
(3, 14) --> 12, 
(4, 0) --> 0, 
(4, 1) --> 1, 
(4, 2) --> 2, 
(4, 3) --> 3, 
(4, 4) --> 4, 
(4, 5) --> 5, 
(4, 6) --> 6, 
(4, 7) --> 7, 
(4, 8) --> 8, 
(4, 9) --> 9, 
(4, 10) --> 10, 
(4, 11) --> 12, 
(4, 12) --> 11, 
(4, 13) --> 12, 
(4, 14) --> 12, 
(5, 0) --> 0, 
(5, 1) --> 1, 
(5, 2) --> 2, 
(5, 3) --> 3, 
(5, 4) --> 4, 
(5, 5) --> 5, 
(5, 6) --> 6, 
(5, 7) --> 7, 
(5, 8) --> 8, 
(5, 9) --> 9, 
(5, 10) --> 10, 
(5, 11) --> 13, 
(5, 12) --> 11, 
(5, 13) --> 11, 
(5, 14) --> 12, 
(6, 0) --> 0, 
(6, 1) --> 1, 
(6, 2) --> 2, 
(6, 3) --> 3, 
(6, 4) --> 4, 
(6, 5) --> 5, 
(6, 6) --> 6, 
(6, 7) --> 7, 
(6, 8) --> 8, 
(6, 9) --> 9, 
(6, 10) --> 10, 
(6, 11) --> 14, 
(6, 12) --> 11, 
(6, 13) --> 11, 
(6, 14) --> 11, 
(7, 0) --> 0, 
(7, 1) --> 1, 
(7, 2) --> 2, 
(7, 3) --> 3, 
(7, 4) --> 4, 
(7, 5) --> 5, 
(7, 6) --> 6, 
(7, 7) --> 7, 
(7, 8) --> 8, 
(7, 9) --> 9, 
(7, 10) --> 11, 
(7, 11) --> 10, 
(7, 12) --> 11, 
(7, 13) --> 11, 
(7, 14) --> 11, 
(8, 0) --> 0, 
(8, 1) --> 1, 
(8, 2) --> 2, 
(8, 3) --> 3, 
(8, 4) --> 4, 
(8, 5) --> 5, 
(8, 6) --> 6, 
(8, 7) --> 7, 
(8, 8) --> 8, 
(8, 9) --> 9, 
(8, 10) --> 12, 
(8, 11) --> 10, 
(8, 12) --> 10, 
(8, 13) --> 11, 
(8, 14) --> 11, 
(9, 0) --> 0, 
(9, 1) --> 1, 
(9, 2) --> 2, 
(9, 3) --> 3, 
(9, 4) --> 4, 
(9, 5) --> 5, 
(9, 6) --> 6, 
(9, 7) --> 7, 
(9, 8) --> 8, 
(9, 9) --> 9, 
(9, 10) --> 13, 
(9, 11) --> 10, 
(9, 12) --> 10, 
(9, 13) --> 10, 
(9, 14) --> 11, 
(10, 0) --> 0, 
(10, 1) --> 1, 
(10, 2) --> 2, 
(10, 3) --> 3, 
(10, 4) --> 4, 
(10, 5) --> 5, 
(10, 6) --> 6, 
(10, 7) --> 7, 
(10, 8) --> 8, 
(10, 9) --> 9, 
(10, 10) --> 14, 
(10, 11) --> 10, 
(10, 12) --> 10, 
(10, 13) --> 10, 
(10, 14) --> 10, 
(11, 0) --> 0, 
(11, 1) --> 1, 
(11, 2) --> 2, 
(11, 3) --> 3, 
(11, 4) --> 4, 
(11, 5) --> 5, 
(11, 6) --> 6, 
(11, 7) --> 7, 
(11, 8) --> 8, 
(11, 9) --> 10, 
(11, 10) --> 9, 
(11, 11) --> 10, 
(11, 12) --> 10, 
(11, 13) --> 10, 
(11, 14) --> 10, 
(12, 0) --> 0, 
(12, 1) --> 1, 
(12, 2) --> 2, 
(12, 3) --> 3, 
(12, 4) --> 4, 
(12, 5) --> 5, 
(12, 6) --> 6, 
(12, 7) --> 7, 
(12, 8) --> 8, 
(12, 9) --> 11, 
(12, 10) --> 9, 
(12, 11) --> 9, 
(12, 12) --> 10, 
(12, 13) --> 10, 
(12, 14) --> 10, 
(13, 0) --> 0, 
(13, 1) --> 1, 
(13, 2) --> 2, 
(13, 3) --> 3, 
(13, 4) --> 4, 
(13, 5) --> 5, 
(13, 6) --> 6, 
(13, 7) --> 7, 
(13, 8) --> 8, 
(13, 9) --> 12, 
(13, 10) --> 9, 
(13, 11) --> 9, 
(13, 12) --> 9, 
(13, 13) --> 10, 
(13, 14) --> 10, 
(14, 0) --> 0, 
(14, 1) --> 1, 
(14, 2) --> 2, 
(14, 3) --> 3, 
(14, 4) --> 4, 
(14, 5) --> 5, 
(14, 6) --> 6, 
(14, 7) --> 7, 
(14, 8) --> 8, 
(14, 9) --> 13, 
(14, 10) --> 9, 
(14, 11) --> 9, 
(14, 12) --> 9, 
(14, 13) --> 9, 
(14, 14) --> 10, 
(15, 0) --> 0, 
(15, 1) --> 1, 
(15, 2) --> 2, 
(15, 3) --> 3, 
(15, 4) --> 4, 
(15, 5) --> 5, 
(15, 6) --> 6, 
(15, 7) --> 7, 
(15, 8) --> 8, 
(15, 9) --> 14, 
(15, 10) --> 9, 
(15, 11) --> 9, 
(15, 12) --> 9, 
(15, 13) --> 9, 
(15, 14) --> 9, 
(16, 0) --> 0, 
(16, 1) --> 1, 
(16, 2) --> 2, 
(16, 3) --> 3, 
(16, 4) --> 4, 
(16, 5) --> 5, 
(16, 6) --> 6, 
(16, 7) --> 7, 
(16, 8) --> 9, 
(16, 9) --> 8, 
(16, 10) --> 9, 
(16, 11) --> 9, 
(16, 12) --> 9, 
(16, 13) --> 9, 
(16, 14) --> 9, 
(17, 0) --> 0, 
(17, 1) --> 1, 
(17, 2) --> 2, 
(17, 3) --> 3, 
(17, 4) --> 4, 
(17, 5) --> 5, 
(17, 6) --> 6, 
(17, 7) --> 7, 
(17, 8) --> 10, 
(17, 9) --> 8, 
(17, 10) --> 8, 
(17, 11) --> 9, 
(17, 12) --> 9, 
(17, 13) --> 9, 
(17, 14) --> 9, 
(18, 0) --> 0, 
(18, 1) --> 1, 
(18, 2) --> 2, 
(18, 3) --> 3, 
(18, 4) --> 4, 
(18, 5) --> 5, 
(18, 6) --> 6, 
(18, 7) --> 7, 
(18, 8) --> 11, 
(18, 9) --> 8, 
(18, 10) --> 8, 
(18, 11) --> 8, 
(18, 12) --> 9, 
(18, 13) --> 9, 
(18, 14) --> 9, 
(19, 0) --> 0, 
(19, 1) --> 1, 
(19, 2) --> 2, 
(19, 3) --> 3, 
(19, 4) --> 4, 
(19, 5) --> 5, 
(19, 6) --> 6, 
(19, 7) --> 7, 
(19, 8) --> 12, 
(19, 9) --> 8, 
(19, 10) --> 8, 
(19, 11) --> 8, 
(19, 12) --> 8, 
(19, 13) --> 9, 
(19, 14) --> 9, 
(20, 0) --> 0, 
(20, 1) --> 1, 
(20, 2) --> 2, 
(20, 3) --> 3, 
(20, 4) --> 4, 
(20, 5) --> 5, 
(20, 6) --> 6, 
(20, 7) --> 7, 
(20, 8) --> 13, 
(20, 9) --> 8, 
(20, 10) --> 8, 
(20, 11) --> 8, 
(20, 12) --> 8, 
(20, 13) --> 8, 
(20, 14) --> 9, 
(21, 0) --> 0, 
(21, 1) --> 1, 
(21, 2) --> 2, 
(21, 3) --> 3, 
(21, 4) --> 4, 
(21, 5) --> 5, 
(21, 6) --> 6, 
(21, 7) --> 7, 
(21, 8) --> 14, 
(21, 9) --> 8, 
(21, 10) --> 8, 
(21, 11) --> 8, 
(21, 12) --> 8, 
(21, 13) --> 8, 
(21, 14) --> 8, 
(22, 0) --> 0, 
(22, 1) --> 1, 
(22, 2) --> 2, 
(22, 3) --> 3, 
(22, 4) --> 4, 
(22, 5) --> 5, 
(22, 6) --> 6, 
(22, 7) --> 8, 
(22, 8) --> 7, 
(22, 9) --> 8, 
(22, 10) --> 8, 
(22, 11) --> 8, 
(22, 12) --> 8, 
(22, 13) --> 8, 
(22, 14) --> 8, 
(23, 0) --> 0, 
(23, 1) --> 1, 
(23, 2) --> 2, 
(23, 3) --> 3, 
(23, 4) --> 4, 
(23, 5) --> 5, 
(23, 6) --> 6, 
(23, 7) --> 9, 
(23, 8) --> 7, 
(23, 9) --> 7, 
(23, 10) --> 8, 
(23, 11) --> 8, 
(23, 12) --> 8, 
(23, 13) --> 8, 
(23, 14) --> 8, 
(24, 0) --> 0, 
(24, 1) --> 1, 
(24, 2) --> 2, 
(24, 3) --> 3, 
(24, 4) --> 4, 
(24, 5) --> 5, 
(24, 6) --> 6, 
(24, 7) --> 10, 
(24, 8) --> 7, 
(24, 9) --> 7, 
(24, 10) --> 7, 
(24, 11) --> 8, 
(24, 12) --> 8, 
(24, 13) --> 8, 
(24, 14) --> 8, 
(25, 0) --> 0, 
(25, 1) --> 1, 
(25, 2) --> 2, 
(25, 3) --> 3, 
(25, 4) --> 4, 
(25, 5) --> 5, 
(25, 6) --> 6, 
(25, 7) --> 11, 
(25, 8) --> 7, 
(25, 9) --> 7, 
(25, 10) --> 7, 
(25, 11) --> 7, 
(25, 12) --> 8, 
(25, 13) --> 8, 
(25, 14) --> 8, 
(26, 0) --> 0, 
(26, 1) --> 1, 
(26, 2) --> 2, 
(26, 3) --> 3, 
(26, 4) --> 4, 
(26, 5) --> 5, 
(26, 6) --> 6, 
(26, 7) --> 12, 
(26, 8) --> 7, 
(26, 9) --> 7, 
(26, 10) --> 7, 
(26, 11) --> 7, 
(26, 12) --> 7, 
(26, 13) --> 8, 
(26, 14) --> 8, 
(27, 0) --> 0, 
(27, 1) --> 1, 
(27, 2) --> 2, 
(27, 3) --> 3, 
(27, 4) --> 4, 
(27, 5) --> 5, 
(27, 6) --> 6, 
(27, 7) --> 13, 
(27, 8) --> 7, 
(27, 9) --> 7, 
(27, 10) --> 7, 
(27, 11) --> 7, 
(27, 12) --> 7, 
(27, 13) --> 7, 
(27, 14) --> 8, 
(28, 0) --> 0, 
(28, 1) --> 1, 
(28, 2) --> 2, 
(28, 3) --> 3, 
(28, 4) --> 4, 
(28, 5) --> 5, 
(28, 6) --> 6, 
(28, 7) --> 14, 
(28, 8) --> 7, 
(28, 9) --> 7, 
(28, 10) --> 7, 
(28, 11) --> 7, 
(28, 12) --> 7, 
(28, 13) --> 7, 
(28, 14) --> 7, 
(29, 0) --> 0, 
(29, 1) --> 1, 
(29, 2) --> 2, 
(29, 3) --> 3, 
(29, 4) --> 4, 
(29, 5) --> 5, 
(29, 6) --> 7, 
(29, 7) --> 6, 
(29, 8) --> 7, 
(29, 9) --> 7, 
(29, 10) --> 7, 
(29, 11) --> 7, 
(29, 12) --> 7, 
(29, 13) --> 7, 
(29, 14) --> 7, 
(30, 0) --> 0, 
(30, 1) --> 1, 
(30, 2) --> 2, 
(30, 3) --> 3, 
(30, 4) --> 4, 
(30, 5) --> 5, 
(30, 6) --> 8, 
(30, 7) --> 6, 
(30, 8) --> 6, 
(30, 9) --> 7, 
(30, 10) --> 7, 
(30, 11) --> 7, 
(30, 12) --> 7, 
(30, 13) --> 7, 
(30, 14) --> 7, 
(31, 0) --> 0, 
(31, 1) --> 1, 
(31, 2) --> 2, 
(31, 3) --> 3, 
(31, 4) --> 4, 
(31, 5) --> 5, 
(31, 6) --> 9, 
(31, 7) --> 6, 
(31, 8) --> 6, 
(31, 9) --> 6, 
(31, 10) --> 7, 
(31, 11) --> 7, 
(31, 12) --> 7, 
(31, 13) --> 7, 
(31, 14) --> 7, 
(32, 0) --> 0, 
(32, 1) --> 1, 
(32, 2) --> 2, 
(32, 3) --> 3, 
(32, 4) --> 4, 
(32, 5) --> 5, 
(32, 6) --> 10, 
(32, 7) --> 6, 
(32, 8) --> 6, 
(32, 9) --> 6, 
(32, 10) --> 6, 
(32, 11) --> 7, 
(32, 12) --> 7, 
(32, 13) --> 7, 
(32, 14) --> 7, 
(33, 0) --> 0, 
(33, 1) --> 1, 
(33, 2) --> 2, 
(33, 3) --> 3, 
(33, 4) --> 4, 
(33, 5) --> 5, 
(33, 6) --> 11, 
(33, 7) --> 6, 
(33, 8) --> 6, 
(33, 9) --> 6, 
(33, 10) --> 6, 
(33, 11) --> 6, 
(33, 12) --> 7, 
(33, 13) --> 7, 
(33, 14) --> 7, 
(34, 0) --> 0, 
(34, 1) --> 1, 
(34, 2) --> 2, 
(34, 3) --> 3, 
(34, 4) --> 4, 
(34, 5) --> 5, 
(34, 6) --> 12, 
(34, 7) --> 6, 
(34, 8) --> 6, 
(34, 9) --> 6, 
(34, 10) --> 6, 
(34, 11) --> 6, 
(34, 12) --> 6, 
(34, 13) --> 7, 
(34, 14) --> 7, 
(35, 0) --> 0, 
(35, 1) --> 1, 
(35, 2) --> 2, 
(35, 3) --> 3, 
(35, 4) --> 4, 
(35, 5) --> 5, 
(35, 6) --> 13, 
(35, 7) --> 6, 
(35, 8) --> 6, 
(35, 9) --> 6, 
(35, 10) --> 6, 
(35, 11) --> 6, 
(35, 12) --> 6, 
(35, 13) --> 6, 
(35, 14) --> 7, 
(36, 0) --> 0, 
(36, 1) --> 1, 
(36, 2) --> 2, 
(36, 3) --> 3, 
(36, 4) --> 4, 
(36, 5) --> 5, 
(36, 6) --> 14, 
(36, 7) --> 6, 
(36, 8) --> 6, 
(36, 9) --> 6, 
(36, 10) --> 6, 
(36, 11) --> 6, 
(36, 12) --> 6, 
(36, 13) --> 6, 
(36, 14) --> 6, 
(37, 0) --> 0, 
(37, 1) --> 1, 
(37, 2) --> 2, 
(37, 3) --> 3, 
(37, 4) --> 4, 
(37, 5) --> 6, 
(37, 6) --> 5, 
(37, 7) --> 6, 
(37, 8) --> 6, 
(37, 9) --> 6, 
(37, 10) --> 6, 
(37, 11) --> 6, 
(37, 12) --> 6, 
(37, 13) --> 6, 
(37, 14) --> 6, 
(38, 0) --> 0, 
(38, 1) --> 1, 
(38, 2) --> 2, 
(38, 3) --> 3, 
(38, 4) --> 4, 
(38, 5) --> 7, 
(38, 6) --> 5, 
(38, 7) --> 5, 
(38, 8) --> 6, 
(38, 9) --> 6, 
(38, 10) --> 6, 
(38, 11) --> 6, 
(38, 12) --> 6, 
(38, 13) --> 6, 
(38, 14) --> 6, 
(39, 0) --> 0, 
(39, 1) --> 1, 
(39, 2) --> 2, 
(39, 3) --> 3, 
(39, 4) --> 4, 
(39, 5) --> 8, 
(39, 6) --> 5, 
(39, 7) --> 5, 
(39, 8) --> 5, 
(39, 9) --> 6, 
(39, 10) --> 6, 
(39, 11) --> 6, 
(39, 12) --> 6, 
(39, 13) --> 6, 
(39, 14) --> 6, 
(40, 0) --> 0, 
(40, 1) --> 1, 
(40, 2) --> 2, 
(40, 3) --> 3, 
(40, 4) --> 4, 
(40, 5) --> 9, 
(40, 6) --> 5, 
(40, 7) --> 5, 
(40, 8) --> 5, 
(40, 9) --> 5, 
(40, 10) --> 6, 
(40, 11) --> 6, 
(40, 12) --> 6, 
(40, 13) --> 6, 
(40, 14) --> 6, 
(41, 0) --> 0, 
(41, 1) --> 1, 
(41, 2) --> 2, 
(41, 3) --> 3, 
(41, 4) --> 4, 
(41, 5) --> 10, 
(41, 6) --> 5, 
(41, 7) --> 5, 
(41, 8) --> 5, 
(41, 9) --> 5, 
(41, 10) --> 5, 
(41, 11) --> 6, 
(41, 12) --> 6, 
(41, 13) --> 6, 
(41, 14) --> 6, 
(42, 0) --> 0, 
(42, 1) --> 1, 
(42, 2) --> 2, 
(42, 3) --> 3, 
(42, 4) --> 4, 
(42, 5) --> 11, 
(42, 6) --> 5, 
(42, 7) --> 5, 
(42, 8) --> 5, 
(42, 9) --> 5, 
(42, 10) --> 5, 
(42, 11) --> 5, 
(42, 12) --> 6, 
(42, 13) --> 6, 
(42, 14) --> 6, 
(43, 0) --> 0, 
(43, 1) --> 1, 
(43, 2) --> 2, 
(43, 3) --> 3, 
(43, 4) --> 4, 
(43, 5) --> 12, 
(43, 6) --> 5, 
(43, 7) --> 5, 
(43, 8) --> 5, 
(43, 9) --> 5, 
(43, 10) --> 5, 
(43, 11) --> 5, 
(43, 12) --> 5, 
(43, 13) --> 6, 
(43, 14) --> 6, 
(44, 0) --> 0, 
(44, 1) --> 1, 
(44, 2) --> 2, 
(44, 3) --> 3, 
(44, 4) --> 4, 
(44, 5) --> 13, 
(44, 6) --> 5, 
(44, 7) --> 5, 
(44, 8) --> 5, 
(44, 9) --> 5, 
(44, 10) --> 5, 
(44, 11) --> 5, 
(44, 12) --> 5, 
(44, 13) --> 5, 
(44, 14) --> 6, 
(45, 0) --> 0, 
(45, 1) --> 1, 
(45, 2) --> 2, 
(45, 3) --> 3, 
(45, 4) --> 4, 
(45, 5) --> 14, 
(45, 6) --> 5, 
(45, 7) --> 5, 
(45, 8) --> 5, 
(45, 9) --> 5, 
(45, 10) --> 5, 
(45, 11) --> 5, 
(45, 12) --> 5, 
(45, 13) --> 5, 
(45, 14) --> 5, 
(46, 0) --> 0, 
(46, 1) --> 1, 
(46, 2) --> 2, 
(46, 3) --> 3, 
(46, 4) --> 5, 
(46, 5) --> 4, 
(46, 6) --> 5, 
(46, 7) --> 5, 
(46, 8) --> 5, 
(46, 9) --> 5, 
(46, 10) --> 5, 
(46, 11) --> 5, 
(46, 12) --> 5, 
(46, 13) --> 5, 
(46, 14) --> 5, 
(47, 0) --> 0, 
(47, 1) --> 1, 
(47, 2) --> 2, 
(47, 3) --> 3, 
(47, 4) --> 6, 
(47, 5) --> 4, 
(47, 6) --> 4, 
(47, 7) --> 5, 
(47, 8) --> 5, 
(47, 9) --> 5, 
(47, 10) --> 5, 
(47, 11) --> 5, 
(47, 12) --> 5, 
(47, 13) --> 5, 
(47, 14) --> 5, 
(48, 0) --> 0, 
(48, 1) --> 1, 
(48, 2) --> 2, 
(48, 3) --> 3, 
(48, 4) --> 7, 
(48, 5) --> 4, 
(48, 6) --> 4, 
(48, 7) --> 4, 
(48, 8) --> 5, 
(48, 9) --> 5, 
(48, 10) --> 5, 
(48, 11) --> 5, 
(48, 12) --> 5, 
(48, 13) --> 5, 
(48, 14) --> 5, 
(49, 0) --> 0, 
(49, 1) --> 1, 
(49, 2) --> 2, 
(49, 3) --> 3, 
(49, 4) --> 8, 
(49, 5) --> 4, 
(49, 6) --> 4, 
(49, 7) --> 4, 
(49, 8) --> 4, 
(49, 9) --> 5, 
(49, 10) --> 5, 
(49, 11) --> 5, 
(49, 12) --> 5, 
(49, 13) --> 5, 
(49, 14) --> 5, 
(50, 0) --> 0, 
(50, 1) --> 1, 
(50, 2) --> 2, 
(50, 3) --> 3, 
(50, 4) --> 9, 
(50, 5) --> 4, 
(50, 6) --> 4, 
(50, 7) --> 4, 
(50, 8) --> 4, 
(50, 9) --> 4, 
(50, 10) --> 5, 
(50, 11) --> 5, 
(50, 12) --> 5, 
(50, 13) --> 5, 
(50, 14) --> 5, 
(51, 0) --> 0, 
(51, 1) --> 1, 
(51, 2) --> 2, 
(51, 3) --> 3, 
(51, 4) --> 10, 
(51, 5) --> 4, 
(51, 6) --> 4, 
(51, 7) --> 4, 
(51, 8) --> 4, 
(51, 9) --> 4, 
(51, 10) --> 4, 
(51, 11) --> 5, 
(51, 12) --> 5, 
(51, 13) --> 5, 
(51, 14) --> 5, 
(52, 0) --> 0, 
(52, 1) --> 1, 
(52, 2) --> 2, 
(52, 3) --> 3, 
(52, 4) --> 11, 
(52, 5) --> 4, 
(52, 6) --> 4, 
(52, 7) --> 4, 
(52, 8) --> 4, 
(52, 9) --> 4, 
(52, 10) --> 4, 
(52, 11) --> 4, 
(52, 12) --> 5, 
(52, 13) --> 5, 
(52, 14) --> 5, 
(53, 0) --> 0, 
(53, 1) --> 1, 
(53, 2) --> 2, 
(53, 3) --> 3, 
(53, 4) --> 12, 
(53, 5) --> 4, 
(53, 6) --> 4, 
(53, 7) --> 4, 
(53, 8) --> 4, 
(53, 9) --> 4, 
(53, 10) --> 4, 
(53, 11) --> 4, 
(53, 12) --> 4, 
(53, 13) --> 5, 
(53, 14) --> 5, 
(54, 0) --> 0, 
(54, 1) --> 1, 
(54, 2) --> 2, 
(54, 3) --> 3, 
(54, 4) --> 13, 
(54, 5) --> 4, 
(54, 6) --> 4, 
(54, 7) --> 4, 
(54, 8) --> 4, 
(54, 9) --> 4, 
(54, 10) --> 4, 
(54, 11) --> 4, 
(54, 12) --> 4, 
(54, 13) --> 4, 
(54, 14) --> 5, 
(55, 0) --> 0, 
(55, 1) --> 1, 
(55, 2) --> 2, 
(55, 3) --> 3, 
(55, 4) --> 14, 
(55, 5) --> 4, 
(55, 6) --> 4, 
(55, 7) --> 4, 
(55, 8) --> 4, 
(55, 9) --> 4, 
(55, 10) --> 4, 
(55, 11) --> 4, 
(55, 12) --> 4, 
(55, 13) --> 4, 
(55, 14) --> 4, 
(56, 0) --> 0, 
(56, 1) --> 1, 
(56, 2) --> 2, 
(56, 3) --> 4, 
(56, 4) --> 3, 
(56, 5) --> 4, 
(56, 6) --> 4, 
(56, 7) --> 4, 
(56, 8) --> 4, 
(56, 9) --> 4, 
(56, 10) --> 4, 
(56, 11) --> 4, 
(56, 12) --> 4, 
(56, 13) --> 4, 
(56, 14) --> 4, 
(57, 0) --> 0, 
(57, 1) --> 1, 
(57, 2) --> 2, 
(57, 3) --> 5, 
(57, 4) --> 3, 
(57, 5) --> 3, 
(57, 6) --> 4, 
(57, 7) --> 4, 
(57, 8) --> 4, 
(57, 9) --> 4, 
(57, 10) --> 4, 
(57, 11) --> 4, 
(57, 12) --> 4, 
(57, 13) --> 4, 
(57, 14) --> 4, 
(58, 0) --> 0, 
(58, 1) --> 1, 
(58, 2) --> 2, 
(58, 3) --> 6, 
(58, 4) --> 3, 
(58, 5) --> 3, 
(58, 6) --> 3, 
(58, 7) --> 4, 
(58, 8) --> 4, 
(58, 9) --> 4, 
(58, 10) --> 4, 
(58, 11) --> 4, 
(58, 12) --> 4, 
(58, 13) --> 4, 
(58, 14) --> 4, 
(59, 0) --> 0, 
(59, 1) --> 1, 
(59, 2) --> 2, 
(59, 3) --> 7, 
(59, 4) --> 3, 
(59, 5) --> 3, 
(59, 6) --> 3, 
(59, 7) --> 3, 
(59, 8) --> 4, 
(59, 9) --> 4, 
(59, 10) --> 4, 
(59, 11) --> 4, 
(59, 12) --> 4, 
(59, 13) --> 4, 
(59, 14) --> 4, 
(60, 0) --> 0, 
(60, 1) --> 1, 
(60, 2) --> 2, 
(60, 3) --> 8, 
(60, 4) --> 3, 
(60, 5) --> 3, 
(60, 6) --> 3, 
(60, 7) --> 3, 
(60, 8) --> 3, 
(60, 9) --> 4, 
(60, 10) --> 4, 
(60, 11) --> 4, 
(60, 12) --> 4, 
(60, 13) --> 4, 
(60, 14) --> 4, 
(61, 0) --> 0, 
(61, 1) --> 1, 
(61, 2) --> 2, 
(61, 3) --> 9, 
(61, 4) --> 3, 
(61, 5) --> 3, 
(61, 6) --> 3, 
(61, 7) --> 3, 
(61, 8) --> 3, 
(61, 9) --> 3, 
(61, 10) --> 4, 
(61, 11) --> 4, 
(61, 12) --> 4, 
(61, 13) --> 4, 
(61, 14) --> 4, 
(62, 0) --> 0, 
(62, 1) --> 1, 
(62, 2) --> 2, 
(62, 3) --> 10, 
(62, 4) --> 3, 
(62, 5) --> 3, 
(62, 6) --> 3, 
(62, 7) --> 3, 
(62, 8) --> 3, 
(62, 9) --> 3, 
(62, 10) --> 3, 
(62, 11) --> 4, 
(62, 12) --> 4, 
(62, 13) --> 4, 
(62, 14) --> 4, 
(63, 0) --> 0, 
(63, 1) --> 1, 
(63, 2) --> 2, 
(63, 3) --> 11, 
(63, 4) --> 3, 
(63, 5) --> 3, 
(63, 6) --> 3, 
(63, 7) --> 3, 
(63, 8) --> 3, 
(63, 9) --> 3, 
(63, 10) --> 3, 
(63, 11) --> 3, 
(63, 12) --> 4, 
(63, 13) --> 4, 
(63, 14) --> 4, 
(64, 0) --> 0, 
(64, 1) --> 1, 
(64, 2) --> 2, 
(64, 3) --> 12, 
(64, 4) --> 3, 
(64, 5) --> 3, 
(64, 6) --> 3, 
(64, 7) --> 3, 
(64, 8) --> 3, 
(64, 9) --> 3, 
(64, 10) --> 3, 
(64, 11) --> 3, 
(64, 12) --> 3, 
(64, 13) --> 4, 
(64, 14) --> 4, 
(65, 0) --> 0, 
(65, 1) --> 1, 
(65, 2) --> 2, 
(65, 3) --> 13, 
(65, 4) --> 3, 
(65, 5) --> 3, 
(65, 6) --> 3, 
(65, 7) --> 3, 
(65, 8) --> 3, 
(65, 9) --> 3, 
(65, 10) --> 3, 
(65, 11) --> 3, 
(65, 12) --> 3, 
(65, 13) --> 3, 
(65, 14) --> 4, 
(66, 0) --> 0, 
(66, 1) --> 1, 
(66, 2) --> 2, 
(66, 3) --> 14, 
(66, 4) --> 3, 
(66, 5) --> 3, 
(66, 6) --> 3, 
(66, 7) --> 3, 
(66, 8) --> 3, 
(66, 9) --> 3, 
(66, 10) --> 3, 
(66, 11) --> 3, 
(66, 12) --> 3, 
(66, 13) --> 3, 
(66, 14) --> 3, 
(67, 0) --> 0, 
(67, 1) --> 1, 
(67, 2) --> 3, 
(67, 3) --> 2, 
(67, 4) --> 3, 
(67, 5) --> 3, 
(67, 6) --> 3, 
(67, 7) --> 3, 
(67, 8) --> 3, 
(67, 9) --> 3, 
(67, 10) --> 3, 
(67, 11) --> 3, 
(67, 12) --> 3, 
(67, 13) --> 3, 
(67, 14) --> 3, 
(68, 0) --> 0, 
(68, 1) --> 1, 
(68, 2) --> 4, 
(68, 3) --> 2, 
(68, 4) --> 2, 
(68, 5) --> 3, 
(68, 6) --> 3, 
(68, 7) --> 3, 
(68, 8) --> 3, 
(68, 9) --> 3, 
(68, 10) --> 3, 
(68, 11) --> 3, 
(68, 12) --> 3, 
(68, 13) --> 3, 
(68, 14) --> 3, 
(69, 0) --> 0, 
(69, 1) --> 1, 
(69, 2) --> 5, 
(69, 3) --> 2, 
(69, 4) --> 2, 
(69, 5) --> 2, 
(69, 6) --> 3, 
(69, 7) --> 3, 
(69, 8) --> 3, 
(69, 9) --> 3, 
(69, 10) --> 3, 
(69, 11) --> 3, 
(69, 12) --> 3, 
(69, 13) --> 3, 
(69, 14) --> 3, 
(70, 0) --> 0, 
(70, 1) --> 1, 
(70, 2) --> 6, 
(70, 3) --> 2, 
(70, 4) --> 2, 
(70, 5) --> 2, 
(70, 6) --> 2, 
(70, 7) --> 3, 
(70, 8) --> 3, 
(70, 9) --> 3, 
(70, 10) --> 3, 
(70, 11) --> 3, 
(70, 12) --> 3, 
(70, 13) --> 3, 
(70, 14) --> 3, 
(71, 0) --> 0, 
(71, 1) --> 1, 
(71, 2) --> 7, 
(71, 3) --> 2, 
(71, 4) --> 2, 
(71, 5) --> 2, 
(71, 6) --> 2, 
(71, 7) --> 2, 
(71, 8) --> 3, 
(71, 9) --> 3, 
(71, 10) --> 3, 
(71, 11) --> 3, 
(71, 12) --> 3, 
(71, 13) --> 3, 
(71, 14) --> 3, 
(72, 0) --> 0, 
(72, 1) --> 1, 
(72, 2) --> 8, 
(72, 3) --> 2, 
(72, 4) --> 2, 
(72, 5) --> 2, 
(72, 6) --> 2, 
(72, 7) --> 2, 
(72, 8) --> 2, 
(72, 9) --> 3, 
(72, 10) --> 3, 
(72, 11) --> 3, 
(72, 12) --> 3, 
(72, 13) --> 3, 
(72, 14) --> 3, 
(73, 0) --> 0, 
(73, 1) --> 1, 
(73, 2) --> 9, 
(73, 3) --> 2, 
(73, 4) --> 2, 
(73, 5) --> 2, 
(73, 6) --> 2, 
(73, 7) --> 2, 
(73, 8) --> 2, 
(73, 9) --> 2, 
(73, 10) --> 3, 
(73, 11) --> 3, 
(73, 12) --> 3, 
(73, 13) --> 3, 
(73, 14) --> 3, 
(74, 0) --> 0, 
(74, 1) --> 1, 
(74, 2) --> 10, 
(74, 3) --> 2, 
(74, 4) --> 2, 
(74, 5) --> 2, 
(74, 6) --> 2, 
(74, 7) --> 2, 
(74, 8) --> 2, 
(74, 9) --> 2, 
(74, 10) --> 2, 
(74, 11) --> 3, 
(74, 12) --> 3, 
(74, 13) --> 3, 
(74, 14) --> 3, 
(75, 0) --> 0, 
(75, 1) --> 1, 
(75, 2) --> 11, 
(75, 3) --> 2, 
(75, 4) --> 2, 
(75, 5) --> 2, 
(75, 6) --> 2, 
(75, 7) --> 2, 
(75, 8) --> 2, 
(75, 9) --> 2, 
(75, 10) --> 2, 
(75, 11) --> 2, 
(75, 12) --> 3, 
(75, 13) --> 3, 
(75, 14) --> 3, 
(76, 0) --> 0, 
(76, 1) --> 1, 
(76, 2) --> 12, 
(76, 3) --> 2, 
(76, 4) --> 2, 
(76, 5) --> 2, 
(76, 6) --> 2, 
(76, 7) --> 2, 
(76, 8) --> 2, 
(76, 9) --> 2, 
(76, 10) --> 2, 
(76, 11) --> 2, 
(76, 12) --> 2, 
(76, 13) --> 3, 
(76, 14) --> 3, 
(77, 0) --> 0, 
(77, 1) --> 1, 
(77, 2) --> 13, 
(77, 3) --> 2, 
(77, 4) --> 2, 
(77, 5) --> 2, 
(77, 6) --> 2, 
(77, 7) --> 2, 
(77, 8) --> 2, 
(77, 9) --> 2, 
(77, 10) --> 2, 
(77, 11) --> 2, 
(77, 12) --> 2, 
(77, 13) --> 2, 
(77, 14) --> 3, 
(78, 0) --> 0, 
(78, 1) --> 1, 
(78, 2) --> 14, 
(78, 3) --> 2, 
(78, 4) --> 2, 
(78, 5) --> 2, 
(78, 6) --> 2, 
(78, 7) --> 2, 
(78, 8) --> 2, 
(78, 9) --> 2, 
(78, 10) --> 2, 
(78, 11) --> 2, 
(78, 12) --> 2, 
(78, 13) --> 2, 
(78, 14) --> 2, 
(79, 0) --> 0, 
(79, 1) --> 2, 
(79, 2) --> 1, 
(79, 3) --> 2, 
(79, 4) --> 2, 
(79, 5) --> 2, 
(79, 6) --> 2, 
(79, 7) --> 2, 
(79, 8) --> 2, 
(79, 9) --> 2, 
(79, 10) --> 2, 
(79, 11) --> 2, 
(79, 12) --> 2, 
(79, 13) --> 2, 
(79, 14) --> 2, 
(80, 0) --> 0, 
(80, 1) --> 3, 
(80, 2) --> 1, 
(80, 3) --> 1, 
(80, 4) --> 2, 
(80, 5) --> 2, 
(80, 6) --> 2, 
(80, 7) --> 2, 
(80, 8) --> 2, 
(80, 9) --> 2, 
(80, 10) --> 2, 
(80, 11) --> 2, 
(80, 12) --> 2, 
(80, 13) --> 2, 
(80, 14) --> 2, 
(81, 0) --> 0, 
(81, 1) --> 4, 
(81, 2) --> 1, 
(81, 3) --> 1, 
(81, 4) --> 1, 
(81, 5) --> 2, 
(81, 6) --> 2, 
(81, 7) --> 2, 
(81, 8) --> 2, 
(81, 9) --> 2, 
(81, 10) --> 2, 
(81, 11) --> 2, 
(81, 12) --> 2, 
(81, 13) --> 2, 
(81, 14) --> 2, 
(82, 0) --> 0, 
(82, 1) --> 5, 
(82, 2) --> 1, 
(82, 3) --> 1, 
(82, 4) --> 1, 
(82, 5) --> 1, 
(82, 6) --> 2, 
(82, 7) --> 2, 
(82, 8) --> 2, 
(82, 9) --> 2, 
(82, 10) --> 2, 
(82, 11) --> 2, 
(82, 12) --> 2, 
(82, 13) --> 2, 
(82, 14) --> 2, 
(83, 0) --> 0, 
(83, 1) --> 6, 
(83, 2) --> 1, 
(83, 3) --> 1, 
(83, 4) --> 1, 
(83, 5) --> 1, 
(83, 6) --> 1, 
(83, 7) --> 2, 
(83, 8) --> 2, 
(83, 9) --> 2, 
(83, 10) --> 2, 
(83, 11) --> 2, 
(83, 12) --> 2, 
(83, 13) --> 2, 
(83, 14) --> 2, 
(84, 0) --> 0, 
(84, 1) --> 7, 
(84, 2) --> 1, 
(84, 3) --> 1, 
(84, 4) --> 1, 
(84, 5) --> 1, 
(84, 6) --> 1, 
(84, 7) --> 1, 
(84, 8) --> 2, 
(84, 9) --> 2, 
(84, 10) --> 2, 
(84, 11) --> 2, 
(84, 12) --> 2, 
(84, 13) --> 2, 
(84, 14) --> 2, 
(85, 0) --> 0, 
(85, 1) --> 8, 
(85, 2) --> 1, 
(85, 3) --> 1, 
(85, 4) --> 1, 
(85, 5) --> 1, 
(85, 6) --> 1, 
(85, 7) --> 1, 
(85, 8) --> 1, 
(85, 9) --> 2, 
(85, 10) --> 2, 
(85, 11) --> 2, 
(85, 12) --> 2, 
(85, 13) --> 2, 
(85, 14) --> 2, 
(86, 0) --> 0, 
(86, 1) --> 9, 
(86, 2) --> 1, 
(86, 3) --> 1, 
(86, 4) --> 1, 
(86, 5) --> 1, 
(86, 6) --> 1, 
(86, 7) --> 1, 
(86, 8) --> 1, 
(86, 9) --> 1, 
(86, 10) --> 2, 
(86, 11) --> 2, 
(86, 12) --> 2, 
(86, 13) --> 2, 
(86, 14) --> 2, 
(87, 0) --> 0, 
(87, 1) --> 10, 
(87, 2) --> 1, 
(87, 3) --> 1, 
(87, 4) --> 1, 
(87, 5) --> 1, 
(87, 6) --> 1, 
(87, 7) --> 1, 
(87, 8) --> 1, 
(87, 9) --> 1, 
(87, 10) --> 1, 
(87, 11) --> 2, 
(87, 12) --> 2, 
(87, 13) --> 2, 
(87, 14) --> 2, 
(88, 0) --> 0, 
(88, 1) --> 11, 
(88, 2) --> 1, 
(88, 3) --> 1, 
(88, 4) --> 1, 
(88, 5) --> 1, 
(88, 6) --> 1, 
(88, 7) --> 1, 
(88, 8) --> 1, 
(88, 9) --> 1, 
(88, 10) --> 1, 
(88, 11) --> 1, 
(88, 12) --> 2, 
(88, 13) --> 2, 
(88, 14) --> 2, 
(89, 0) --> 0, 
(89, 1) --> 12, 
(89, 2) --> 1, 
(89, 3) --> 1, 
(89, 4) --> 1, 
(89, 5) --> 1, 
(89, 6) --> 1, 
(89, 7) --> 1, 
(89, 8) --> 1, 
(89, 9) --> 1, 
(89, 10) --> 1, 
(89, 11) --> 1, 
(89, 12) --> 1, 
(89, 13) --> 2, 
(89, 14) --> 2, 
(90, 0) --> 0, 
(90, 1) --> 13, 
(90, 2) --> 1, 
(90, 3) --> 1, 
(90, 4) --> 1, 
(90, 5) --> 1, 
(90, 6) --> 1, 
(90, 7) --> 1, 
(90, 8) --> 1, 
(90, 9) --> 1, 
(90, 10) --> 1, 
(90, 11) --> 1, 
(90, 12) --> 1, 
(90, 13) --> 1, 
(90, 14) --> 2, 
(91, 0) --> 0, 
(91, 1) --> 14, 
(91, 2) --> 1, 
(91, 3) --> 1, 
(91, 4) --> 1, 
(91, 5) --> 1, 
(91, 6) --> 1, 
(91, 7) --> 1, 
(91, 8) --> 1, 
(91, 9) --> 1, 
(91, 10) --> 1, 
(91, 11) --> 1, 
(91, 12) --> 1, 
(91, 13) --> 1, 
(91, 14) --> 1, 
(92, 0) --> 1, 
(92, 1) --> 0, 
(92, 2) --> 1, 
(92, 3) --> 1, 
(92, 4) --> 1, 
(92, 5) --> 1, 
(92, 6) --> 1, 
(92, 7) --> 1, 
(92, 8) --> 1, 
(92, 9) --> 1, 
(92, 10) --> 1, 
(92, 11) --> 1, 
(92, 12) --> 1, 
(92, 13) --> 1, 
(92, 14) --> 1, 
(93, 0) --> 2, 
(93, 1) --> 0, 
(93, 2) --> 0, 
(93, 3) --> 1, 
(93, 4) --> 1, 
(93, 5) --> 1, 
(93, 6) --> 1, 
(93, 7) --> 1, 
(93, 8) --> 1, 
(93, 9) --> 1, 
(93, 10) --> 1, 
(93, 11) --> 1, 
(93, 12) --> 1, 
(93, 13) --> 1, 
(93, 14) --> 1, 
(94, 0) --> 3, 
(94, 1) --> 0, 
(94, 2) --> 0, 
(94, 3) --> 0, 
(94, 4) --> 1, 
(94, 5) --> 1, 
(94, 6) --> 1, 
(94, 7) --> 1, 
(94, 8) --> 1, 
(94, 9) --> 1, 
(94, 10) --> 1, 
(94, 11) --> 1, 
(94, 12) --> 1, 
(94, 13) --> 1, 
(94, 14) --> 1, 
(95, 0) --> 4, 
(95, 1) --> 0, 
(95, 2) --> 0, 
(95, 3) --> 0, 
(95, 4) --> 0, 
(95, 5) --> 1, 
(95, 6) --> 1, 
(95, 7) --> 1, 
(95, 8) --> 1, 
(95, 9) --> 1, 
(95, 10) --> 1, 
(95, 11) --> 1, 
(95, 12) --> 1, 
(95, 13) --> 1, 
(95, 14) --> 1, 
(96, 0) --> 5, 
(96, 1) --> 0, 
(96, 2) --> 0, 
(96, 3) --> 0, 
(96, 4) --> 0, 
(96, 5) --> 0, 
(96, 6) --> 1, 
(96, 7) --> 1, 
(96, 8) --> 1, 
(96, 9) --> 1, 
(96, 10) --> 1, 
(96, 11) --> 1, 
(96, 12) --> 1, 
(96, 13) --> 1, 
(96, 14) --> 1, 
(97, 0) --> 6, 
(97, 1) --> 0, 
(97, 2) --> 0, 
(97, 3) --> 0, 
(97, 4) --> 0, 
(97, 5) --> 0, 
(97, 6) --> 0, 
(97, 7) --> 1, 
(97, 8) --> 1, 
(97, 9) --> 1, 
(97, 10) --> 1, 
(97, 11) --> 1, 
(97, 12) --> 1, 
(97, 13) --> 1, 
(97, 14) --> 1, 
(98, 0) --> 7, 
(98, 1) --> 0, 
(98, 2) --> 0, 
(98, 3) --> 0, 
(98, 4) --> 0, 
(98, 5) --> 0, 
(98, 6) --> 0, 
(98, 7) --> 0, 
(98, 8) --> 1, 
(98, 9) --> 1, 
(98, 10) --> 1, 
(98, 11) --> 1, 
(98, 12) --> 1, 
(98, 13) --> 1, 
(98, 14) --> 1, 
(99, 0) --> 8, 
(99, 1) --> 0, 
(99, 2) --> 0, 
(99, 3) --> 0, 
(99, 4) --> 0, 
(99, 5) --> 0, 
(99, 6) --> 0, 
(99, 7) --> 0, 
(99, 8) --> 0, 
(99, 9) --> 1, 
(99, 10) --> 1, 
(99, 11) --> 1, 
(99, 12) --> 1, 
(99, 13) --> 1, 
(99, 14) --> 1, 
(100, 0) --> 9, 
(100, 1) --> 0, 
(100, 2) --> 0, 
(100, 3) --> 0, 
(100, 4) --> 0, 
(100, 5) --> 0, 
(100, 6) --> 0, 
(100, 7) --> 0, 
(100, 8) --> 0, 
(100, 9) --> 0, 
(100, 10) --> 1, 
(100, 11) --> 1, 
(100, 12) --> 1, 
(100, 13) --> 1, 
(100, 14) --> 1, 
(101, 0) --> 10, 
(101, 1) --> 0, 
(101, 2) --> 0, 
(101, 3) --> 0, 
(101, 4) --> 0, 
(101, 5) --> 0, 
(101, 6) --> 0, 
(101, 7) --> 0, 
(101, 8) --> 0, 
(101, 9) --> 0, 
(101, 10) --> 0, 
(101, 11) --> 1, 
(101, 12) --> 1, 
(101, 13) --> 1, 
(101, 14) --> 1, 
(102, 0) --> 11, 
(102, 1) --> 0, 
(102, 2) --> 0, 
(102, 3) --> 0, 
(102, 4) --> 0, 
(102, 5) --> 0, 
(102, 6) --> 0, 
(102, 7) --> 0, 
(102, 8) --> 0, 
(102, 9) --> 0, 
(102, 10) --> 0, 
(102, 11) --> 0, 
(102, 12) --> 1, 
(102, 13) --> 1, 
(102, 14) --> 1, 
(103, 0) --> 12, 
(103, 1) --> 0, 
(103, 2) --> 0, 
(103, 3) --> 0, 
(103, 4) --> 0, 
(103, 5) --> 0, 
(103, 6) --> 0, 
(103, 7) --> 0, 
(103, 8) --> 0, 
(103, 9) --> 0, 
(103, 10) --> 0, 
(103, 11) --> 0, 
(103, 12) --> 0, 
(103, 13) --> 1, 
(103, 14) --> 1, 
(104, 0) --> 13, 
(104, 1) --> 0, 
(104, 2) --> 0, 
(104, 3) --> 0, 
(104, 4) --> 0, 
(104, 5) --> 0, 
(104, 6) --> 0, 
(104, 7) --> 0, 
(104, 8) --> 0, 
(104, 9) --> 0, 
(104, 10) --> 0, 
(104, 11) --> 0, 
(104, 12) --> 0, 
(104, 13) --> 0, 
(104, 14) --> 1, 
(105, 0) --> 14, 
(105, 1) --> 0, 
(105, 2) --> 0, 
(105, 3) --> 0, 
(105, 4) --> 0, 
(105, 5) --> 0, 
(105, 6) --> 0, 
(105, 7) --> 0, 
(105, 8) --> 0, 
(105, 9) --> 0, 
(105, 10) --> 0, 
(105, 11) --> 0, 
(105, 12) --> 0, 
(105, 13) --> 0, 
(105, 14) --> 0, 
) 
letting sizeS be 105